intento.lp
\ Model Chebyshev_Center
\ LP format - for model browsing. Use MPS format to capture full model detail.
Maximize
  r
Subject To
 Ineq_0: X_0 + r <= 16
 Ineq_1: - X_0 + r <= 16
 Ineq_2: X_1 + r <= 16
 Ineq_3: - X_1 + r <= 16
 Ineq_4: X_2 + r <= 16
 Ineq_5: - X_2 + r <= 16
 Ineq_6: X_3 + r <= 16
 Ineq_7: - X_3 + r <= 16
 Ineq_9: 0.147 X_0 - 0.0394 X_1 - 0.0417 X_2 - 0.0659 X_3
   + 0.1710060232857311 r <= 0
 Ineq_10: - 0.25 X_0 + 0.0228 X_1 + 0.2086 X_2 + 0.0186 X_3
   + 0.3269247008104466 r <= 2.150978418821718
 Ineq_11: - 0.25 X_0 + 0.4261 X_1 - 0.25 X_2 + 0.0739 X_3
   + 0.558589670509579 r <= 4.961261915931219
 Ineq_12: - 0.25 X_0 - 0.25 X_1 - 0.25 X_2 + 0.75 X_3
   + 0.8660254037844386 r <= 7.034217101828245
 Ineq_13: - 0.25 X_0 - 0.25 X_1 - 0.25 X_2 + 0.75 X_3
   + 0.8660254037844386 r <= 3.160817274527846
 Ineq_14: - 0.25 X_0 + 0.75 X_1 - 0.25 X_2 - 0.25 X_3
   + 0.8660254037844386 r <= 4.234987504024582
 Ineq_15: - 0.25 X_0 + 0.2657 X_1 + 0.2343 X_2 - 0.25 X_3
   + 0.5004927372100418 r <= 1.353282883351549
 Ineq_16: - 0.25 X_0 - 0.25 X_1 + 0.75 X_2 - 0.25 X_3
   + 0.8660254037844386 r <= 4.823744734127001
 Ineq_17: - 0.25 X_0 - 0.25 X_1 + 0.7345 X_2 - 0.2345 X_3
   + 0.8482219638750226 r <= 2.857811869751743
 Ineq_18: - 0.25 X_0 - 0.25 X_1 + 0.2371 X_2 + 0.2629 X_3
   + 0.5003327093045187 r <= 1.131698985628278
 Ineq_19: - 0.25 X_0 + 0.6381 X_1 - 0.25 X_2 - 0.1381 X_3
   + 0.7424575543423342 r <= 1.680443855682905
 Ineq_20: - 0.25 X_0 + 0.162 X_1 + 0.2304 X_2 - 0.1424 X_3
   + 0.4026237946271929 r <= 0.5479891557995157
 Ineq_21: - 0.25 X_0 - 0.25 X_1 - 0.25 X_2 + 0.75 X_3
   + 0.8660254037844386 r <= 1.551471609389542
 Ineq_22: - 0.25 X_0 + 0.59 X_1 - 0.25 X_2 - 0.09 X_3 + 0.693685807840985 r
   <= 0.8836102767785844
 Ineq_23: - 0.25 X_0 - 0.0869 X_1 + 0.0713 X_2 + 0.2656 X_3
   + 0.3816787392559349 r <= 0.384224007748508
 Ineq_24: - 0.25 X_0 + 0.344 X_1 + 0.0649 X_2 - 0.1589 X_3
   + 0.4585817484375059 r <= 0.3362341509241225
 Ineq_25: - 0.25 X_0 - 0.25 X_1 + 0.6799 X_2 - 0.1799 X_3
   + 0.7871645444251157 r <= 0.9754313261400609
 Ineq_26: - 0.25 X_0 - 0.1748 X_1 + 0.4825 X_2 - 0.0577 X_3
   + 0.5737513224385632 r <= 0.4344343794476333
 Ineq_27: - 0.25 X_0 - 0.0298 X_1 + 0.1839 X_2 + 0.0959 X_3
   + 0.3261963519109311 r <= 0.1535944866516888
 Ineq_28: - 0.25 X_0 + 0.2664 X_1 - 0.25 X_2 + 0.2336 X_3
   + 0.5005376309529584 r <= 0.6226065255113649
Bounds
End
