intento.mps
NAME Chebyshev_Center
* Max problem is converted into Min one
ROWS
 N  OBJ
 L  Ineq_0  
 L  Ineq_1  
 L  Ineq_2  
 L  Ineq_3  
 L  Ineq_4  
 L  Ineq_5  
 E  Eq_0    
 L  Ineq_7  
COLUMNS
    X_0       Ineq_0    1
    X_0       Ineq_1    -1
    X_0       Eq_0      1
    X_0       Ineq_7    -1.1393333333333330e-01
    X_1       Ineq_2    1
    X_1       Ineq_3    -1
    X_1       Eq_0      1
    X_1       Ineq_7    2.2406666666666669e-01
    X_2       Ineq_4    1
    X_2       Ineq_5    -1
    X_2       Eq_0      1
    X_2       Ineq_7    -1.1013333333333331e-01
    r         OBJ       -1
    r         Ineq_0    1
    r         Ineq_1    1
    r         Ineq_2    1
    r         Ineq_3    1
    r         Ineq_4    1
    r         Ineq_5    1
    r         Ineq_7    2.7443765533662950e-01
RHS
    RHS1      Ineq_0    16
    RHS1      Ineq_1    16
    RHS1      Ineq_2    16
    RHS1      Ineq_3    16
    RHS1      Ineq_4    16
    RHS1      Ineq_5    16
BOUNDS
ENDATA
